WARNING: for repeatability, setting FPU to use double precision
============================[ Problem Statistics ]=============================
|                                                                             |
|  Number of variables:          8399                                         |
|  Number of clauses:           65603                                         |
|  Parse time:                   0.03 s                                       |
|  Eliminated clauses:           0.01 Mb                                      |
|  Simplification time:          0.03 s                                       |
|                                                                             |
============================[ Search Statistics ]==============================
| Conflicts |          ORIGINAL         |          LEARNT          | Progress |
|           |    Vars  Clauses Literals |    Limit  Clauses Lit/Cl |          |
===============================================================================
===============================================================================
restarts              : 1
conflicts             : 6              (97 /sec)
decisions             : 154            (0.00 % random) (2482 /sec)
propagations          : 7266           (117120 /sec)
conflict literals     : 12             (7.69 % deleted)
Memory used           : 25.00 MB
CPU time              : 0.062039 s

UNSATISFIABLE
WARNING: for repeatability, setting FPU to use double precision
============================[ Problem Statistics ]=============================
|                                                                             |
|  Number of variables:          8399                                         |
|  Number of clauses:           65603                                         |
|  Parse time:                   0.02 s                                       |
|  Eliminated clauses:           0.01 Mb                                      |
|  Simplification time:          0.02 s                                       |
|                                                                             |
============================[ Search Statistics ]==============================
| Conflicts |          ORIGINAL         |          LEARNT          | Progress |
|           |    Vars  Clauses Literals |    Limit  Clauses Lit/Cl |          |
===============================================================================
===============================================================================
restarts              : 1
conflicts             : 6              (163 /sec)
decisions             : 154            (0.00 % random) (4194 /sec)
propagations          : 7266           (197897 /sec)
conflict literals     : 12             (7.69 % deleted)
Memory used           : 25.00 MB
CPU time              : 0.036716 s

UNSATISFIABLE
